lattice_vector      8.17519100      0.00000000      0.00000000
lattice_vector    -16.35043200     28.31977900      0.00000000
lattice_vector      0.00000000      0.00000000     60.65351600
atom      -8.18782500     28.29908400      0.70340100 Ge
  constrain_relaxation .true.
atom      -8.18285699     28.10964688     10.57479799 Ge
atom       2.03420642      1.17969571      7.50128142 Ge
atom      -0.01120106      2.31377182      4.02231218 Ge
atom      -8.18736223     28.28204641      3.18764892 Ge
atom       2.02187600      1.17537300     60.51593500 Ge
  constrain_relaxation .true.
atom       2.09679684      1.08496946     10.05342425 Ge
atom      -0.01000322      2.25331353      6.52150294 Ge
atom       4.07536500      0.00696400      0.68522300 Ge
  constrain_relaxation .true.
atom       4.07999240      0.08318796     11.31734116 A
atom       6.12115691      1.17990376      7.50086963 Ge
atom       4.07582249      2.35008391      4.09954473 Ge
atom       4.07584401      0.01964528      3.16549134 Ge
atom       6.12828700      1.17557000     60.51433100 Ge
  constrain_relaxation .true.
atom       6.06301885      1.08500185     10.05300394 Ge
atom       4.07732079      2.34817757      6.62268952 Ge
atom       6.11675000      3.52404200      0.73971300 Ge
  constrain_relaxation .true.
atom      -1.91223028      3.58655180     10.58820902 Ge
atom      -0.01117766      4.70738959      6.93777066 Ge
atom      -2.08512517      5.90407850      4.01713081 Ge
atom       6.11178974      3.51897643      3.23129932 Ge
atom      -0.01305700      4.71216400     60.56898400 Ge
  constrain_relaxation .true.
atom      -0.00497774      4.74177329      9.38673008 Ge
atom      -2.13604098      5.93343084      6.52479058 Ge
atom       2.03480700      3.52537700      0.73781500 Ge
  constrain_relaxation .true.
atom       1.89848678      3.58642085     10.59033376 Ge
atom       4.07709302      4.69647219      7.51070455 Ge
atom       2.06215352      5.90399636      4.01724806 Ge
atom       2.04002532      3.51938893      3.22993107 Ge
atom       4.07666500      4.69015800     60.51579000 Ge
  constrain_relaxation .true.
atom       4.08043816      4.84923386     10.07250593 Ge
atom       2.11423771      5.93305960      6.52513386 Ge
atom       4.07596000      7.06887700      0.63684600 Ge
  constrain_relaxation .true.
atom       4.08009736      7.06360363     11.34660247 Ge
atom      -2.04584744      8.25654651      7.50715287 Ge
atom      -4.09916959      9.39210232      4.01668789 Ge
atom       4.07596723      7.06444129      3.11223299 Ge
atom      -2.03969500      8.25505400     60.50969000 Ge
  constrain_relaxation .true.
atom      -2.19538184      8.15438808     10.06150018 Ge
atom      -4.09792164      9.33948283      6.52232075 Ge
atom      -0.01159200      7.07835700      0.74349500 Ge
  constrain_relaxation .true.
atom      -0.00757039      6.95914906     10.58441727 Ge
atom       2.02594575      8.25626420      7.50768527 Ge
atom      -0.01111533      9.42946770      4.11009302 Ge
atom      -0.01160842      7.07809003      3.23682694 Ge
atom       2.01582300      8.25423700     60.50993200 Ge
  constrain_relaxation .true.
atom       2.17994944      8.15470100     10.06215721 Ge
atom      -0.00995456      9.42998405      6.63542398 Ge
atom       2.02493600     10.60364800      0.73488800 Ge
  constrain_relaxation .true.
atom      -6.05776074     10.65957665     10.59394272 Ge
atom      -4.09820632     11.79950589      6.94193740 Ge
atom      -6.17230110     12.98338835      4.01172023 Ge
atom       2.02362404     10.59814150      3.22878698 Ge
atom      -4.09921900     11.77166000     60.53784500 Ge
  constrain_relaxation .true.
atom      -4.09425917     11.69872686      9.38756179 Ge
atom      -6.22106592     13.01920865      6.51810894 Ge
atom      -2.04827600     10.60355600      0.73651900 Ge
  constrain_relaxation .true.
atom      -2.13227368     10.65925799     10.59416706 Ge
atom      -0.01012878     11.78621009      7.50410221 Ge
atom      -2.02589719     12.98348961      4.01222851 Ge
atom      -2.04681497     10.59805148      3.23004499 Ge
atom      -0.01258700     11.78951600     60.53493500 Ge
  constrain_relaxation .true.
atom      -0.00756383     12.00721511     10.05866760 Ge
atom      -1.97516518     13.01910025      6.51859697 Ge
atom      -0.01260200     14.16701700      0.67620600 Ge
  constrain_relaxation .true.
atom      -8.18297052     14.24248524     11.31401505 Ge
atom      -6.14186731     15.33899555      7.49747797 Ge
atom      -8.18694770     16.50937270      4.09612232 Ge
atom      -8.18697555     14.17983494      3.15792082 Ge
atom      -6.13457200     15.33692900     60.50935400 Ge
  constrain_relaxation .true.
atom      -6.20012405     15.24421850     10.04963008 Ge
atom      -8.18558863     16.50735788      6.61958638 Ge
atom      -4.09883700     14.14048200      0.69612300 Ge
  constrain_relaxation .true.
atom      -4.09535402     13.95007616     10.57171671 Ge
atom      -2.05348758     15.33894824      7.49795209 Ge
atom      -4.09918651     16.47326050      4.02011297 Ge
atom      -4.09926515     14.12294801      3.18114671 Ge
atom      -2.06511100     15.33882900     60.50940900 Ge
  constrain_relaxation .true.
atom      -1.99087485     15.24429520     10.05007541 Ge
atom      -4.09786530     16.41276516      6.51918932 Ge
atom      -2.05455900     17.68609100      0.73825100 Ge
  constrain_relaxation .true.
atom      -2.18952600     17.74485218     10.58905779 Ge
atom      -8.18601398     18.85508629      7.51020248 Ge
atom     -10.20126107     20.06398789      4.01855982 Ge
atom      -2.04812779     17.67972563      3.22985427 Ge
atom      -8.18722600     18.85009400     60.51710100 Ge
  constrain_relaxation .true.
atom      -8.18283585     19.00768766     10.07224457 Ge
atom     -10.14893917     20.09278479      6.52643971 Ge
atom      -6.14533100     17.68411400      0.73849300 Ge
  constrain_relaxation .true.
atom      -6.00032005     17.74497998     10.58697680 Ge
atom      -4.09902715     18.86653041      6.93763203 Ge
atom      -6.17358206     20.06389867      4.01848954 Ge
atom      -6.15097181     17.67953051      3.23004475 Ge
atom      -4.10100800     18.87279600     60.56839200 Ge
  constrain_relaxation .true.
atom      -4.09311705     18.90168039      9.38661511 Ge
atom      -6.22392477     20.09299955      6.52615502 Ge
atom      -4.10112000     21.23762100      0.74531700 Ge
  constrain_relaxation .true.
atom      -4.09547134     21.11732441     10.58656587 Ge
atom     -10.23723474     22.41537510      7.51124446 Ge
atom     -12.27479004     23.58872934      4.11451784 Ge
atom      -4.10016304     21.23795888      3.23884741 Ge
atom     -10.24889400     22.41575300     60.51487000 Ge
  constrain_relaxation .true.
atom     -10.08312755     22.31340937     10.06558772 Ge
atom     -12.27330319     23.58912198      6.63962879 Ge
atom      -8.18832400     21.22963300      0.63908000 Ge
  constrain_relaxation .true.
atom      -8.18315187     21.22066383     11.34882770 Ge
atom      -6.13378495     22.41544074      7.51103468 Ge
atom      -8.18723132     23.55134193      4.02197146 Ge
atom      -8.18758298     21.22483005      3.11436128 Ge
atom      -6.12861300     22.41600800     60.51285100 Ge
  constrain_relaxation .true.
atom      -6.28336462     22.31297279     10.06519535 Ge
atom      -8.18572743     23.49895684      6.52708980 Ge
atom      -6.13857100     24.76292400      0.74204300 Ge
  constrain_relaxation .true.
atom      -6.22006967     24.81786234     10.59948892 Ge
atom     -12.27319536     25.94525565      7.50922498 Ge
atom     -14.28898458     27.14267851      4.01804567 Ge
atom      -6.13537654     24.75747243      3.23521253 Ge
atom     -12.27671400     25.94930000     60.54493700 Ge
  constrain_relaxation .true.
atom     -12.27066689     26.16640746     10.06359495 Ge
atom     -14.23808261     27.17868627      6.52405916 Ge
atom     -10.23888200     24.76333300      0.74312700 Ge
  constrain_relaxation .true.
atom     -10.14570544     24.81830110     10.59908217 Ge
atom      -8.18587718     25.95910344      6.94715493 Ge
atom     -10.26021098     27.14280429      4.01867250 Ge
atom     -10.23956411     24.75777724      3.23586176 Ge
atom      -8.18923300     25.93124800     60.54513000 Ge
  constrain_relaxation .true.
atom      -8.18203766     25.85705210      9.39223044 Ge
atom     -10.30875584     27.17883780      6.52435094 Ge
atom      -8.18362721     25.92596660     12.05844388 Ge
atom      -4.09660119     18.87445012     12.06089519 Ge
atom      -4.09581283     11.76600385     12.05330312 Ge
atom      -0.00866016      4.71825215     12.06108885 Ge
atom     -12.28062400     25.92297500     58.93861000 H
  constrain_relaxation .true.
atom      -8.19603000     25.89925600     58.93889400 H
  constrain_relaxation .true.
atom     -10.28967900     22.43204500     58.90969100 H
  constrain_relaxation .true.
atom      -6.10070700     22.42917100     58.90717000 H
  constrain_relaxation .true.
atom      -8.19415300     18.80960100     58.91136600 H
  constrain_relaxation .true.
atom      -4.10694600     18.86372500     58.96224200 H
  constrain_relaxation .true.
atom      -6.12058400     15.35772100     58.90364300 H
  constrain_relaxation .true.
atom      -2.09289000     15.35727600     58.90376700 H
  constrain_relaxation .true.
atom      -4.10534200     11.74212700     58.93079700 H
  constrain_relaxation .true.
atom      -0.02031800     11.76251100     58.92854600 H
  constrain_relaxation .true.
atom      -2.00788800      8.26495700     58.90371400 H
  constrain_relaxation .true.
atom       1.97350000      8.26291400     58.90446200 H
  constrain_relaxation .true.
atom      -0.02137000      4.70252800     58.96240400 H
  constrain_relaxation .true.
atom       4.07209300      4.64609800     58.91045300 H
  constrain_relaxation .true.
atom       1.99764300      1.18364700     58.91039400 H
  constrain_relaxation .true.
atom       6.14078500      1.18671800     58.90857600 H
  constrain_relaxation .true.
atom 4.079992   0.083187  17.317341  D
	initial_moment 1.
